50
    1    85    85
    2    94    94
    3    26    26
    4     6     6
    5    48    48
    6    16    16
    7    21    21
    8    92    92
    9    22    22
   10    49    49
   11    95    95
   12    37    37
   13    43    43
   14    57    57
   15    45    45
   16    15    15
   17    55    55
   18    46    46
   19    52    52
   20    22    22
   21     9     9
   22    91    91
   23     1     1
   24    59    59
   25    22    22
   26    67    67
   27    94    94
   28    98    98
   29    38    38
   30     7     7
   31    74    74
   32    44    44
   33    15    15
   34    34    34
   35    82    82
   36    66    66
   37    67    67
   38    94    94
   39    84    84
   40    93    93
   41    99    99
   42    33    33
   43    33    33
   44    31    31
   45    82    82
   46    28    28
   47    72    72
   48   100   100
   49    74    74
   50    17    17
439
